NAME: A-n44-k6-C15-V2
TYPE: SoftCluVRP
DIMENSION:  44 
VEHICLES:  2 
GVRP_SETS:  15 
CAPACITY:  100 
EDGE_WEIGHT_TYPE: EUC_2D
NODE_COORD_SECTION 
1 14.000000 68.000000
2 73.000000 2.000000
3 13.000000 47.000000
4 37.000000 44.000000
5 34.000000 63.000000
6 58.000000 98.000000
7 33.000000 42.000000
8 18.000000 98.000000
9 24.000000 79.000000
10 17.000000 28.000000
11 72.000000 67.000000
12 78.000000 63.000000
13 42.000000 48.000000
14 1.000000 2.000000
15 2.000000 28.000000
16 32.000000 82.000000
17 97.000000 38.000000
18 39.000000 53.000000
19 87.000000 1.000000
20 42.000000 77.000000
21 83.000000 27.000000
22 79.000000 92.000000
23 22.000000 39.000000
24 58.000000 32.000000
25 53.000000 84.000000
26 38.000000 37.000000
27 63.000000 59.000000
28 42.000000 88.000000
29 32.000000 88.000000
30 38.000000 23.000000
31 63.000000 32.000000
32 22.000000 73.000000
33 88.000000 94.000000
34 58.000000 78.000000
35 43.000000 62.000000
36 73.000000 1.000000
37 17.000000 32.000000
38 87.000000 79.000000
39 12.000000 24.000000
40 48.000000 53.000000
41 48.000000 23.000000
42 7.000000 37.000000
43 98.000000 77.000000
44 34.000000 12.000000
GVRP_SET_SECTION 
 1 19  2  36 -1
 2  8 -1
 3  14 -1
 4  43  38 -1
 5  4  7  13  18  26  40 -1
 6  6 -1
 7  17 -1
 8  44  30 -1
 9  42  3  10  15  23  37  39 -1
 10  27  11  12 -1
 11  31  24  41 -1
 12  20  5  16  25  28  29  34  35 -1
 13  22  33 -1
 14  32  9 -1
 15  21 -1
 DEMAND_SECTION
 1 10 
 2 9 
 3 13 
 4 19 
 5 13 
 6 9 
 7 24 
 8 15 
 9 11 
 10 10 
 11 18 
 12 13 
 13 5 
 14 18 
 15 13 
EOF
